%chk=aniline_opt.chk
# HF/6-31G* SCF=Tight Pop=MK IOp(6/33=2,6/41=10,6/42=17)

Title Card Required

0 1
 C                  1.17182300    1.20260700   -0.00337800
 C                 -0.22125800    1.20825000    0.00517500
 C                 -0.93874400    0.00000500    0.01013900
 C                 -0.22126400   -1.20824500    0.00517400
 C                  1.17181400   -1.20261300   -0.00337600
 C                  1.88169200   -0.00000400   -0.00833000
 H                  1.70568500    2.14975100   -0.00879700
 H                 -0.76331600    2.15175300    0.01327800
 H                 -0.76333600   -2.15174000    0.01327300
 H                  1.70567000   -2.14976000   -0.00879700
 H                  2.96765300   -0.00000700   -0.01660800
 N                 -2.33738000    0.00000100    0.07891000
 H                 -2.77753500    0.83490500   -0.28857500
 H                 -2.77753600   -0.83490600   -0.28856700



