%chk=aniline.chk
# b3lyp/6-31g* opt=tight

Title Card Required

0 1
 C                 -0.53956834    1.85851314    0.00000000
 C                  0.85559166    1.85851314    0.00000000
 C                  1.55312966    3.06626414    0.00000000
 C                  0.85547566    4.27477314   -0.00119900
 C                 -0.53934934    4.27469514   -0.00167800
 C                 -1.23695034    3.06648914   -0.00068200
 H                 -1.08932734    0.90619614    0.00045000
 H                  1.40509966    0.90600014    0.00131500
 H                  1.40567566    5.22691614   -0.00125800
 H                 -1.08947134    5.22697614   -0.00263100
 H                 -2.33655434    3.06667214   -0.00086200
 N                  3.02312941    3.06637108    0.00084750
 H                  3.35602581    2.59534128    0.81773851
 H                  3.35696733    2.59464054   -0.81525454

